






































































































33 75 31 18 15 55 48 
76 27 56 9 38 11 23 
17 8 69 42 64 16 53 
29 67 6 58 73 71 74 
20 50 39 21 13 47 66 
10 7 35 28 45 12 63 1 
14 3 43 22 62 26 65 
59 36 4 61 2 44 
30 19 40 37 60 34 24 
57 51 70 
32 68 54 49 46 0 
25 72 41 52 5 
